VER
4

OBJSENSE
MIN

QCECONES
1 2
2
2 2
0

VAR
18 2
@0:HVECQCE 17
L+ 1

CON
5 1
L= 5

OBJACOORD
1
0 1.0

OBJBCOORD
0.5334951652730546

ACOORD
24
0 1 1.0
0 4 1.0
1 5 1.0
1 12 1.0
2 6 1.0
2 13 1.0
3 9 1.0
3 16 1.0
4 1 0.38827048603611625
4 2 -0.17704286961070165
4 3 0.07447916897376292
4 4 0.9698467023015075
4 5 -0.17704286961070165
4 6 0.07447916897376292
4 7 -0.04264320255548153
4 9 0.9698467023015075
4 10 -0.44294847538276394
4 11 0.45282119097149737
4 12 -0.1296318556858111
4 13 0.05453409620639344
4 14 -0.1296318556858111
4 15 0.05453409620639344
4 16 0.6720361093608687
4 17 1.0

BCOORD
5
0 0.6418828116623764
1 0.3066747252965127
2 -0.12901326518015635
3 0.35811718833762374
4 0.5
